c b=5,c=1089
p cnf 21 59
5 -10 0
1 5 -16 0
5 -20 0
-5 10 0
1 -5 16 0
1 -5 20 0
4 -9 0
4 -15 0
1 4 -19 0
-4 9 0
-4 15 0
1 -4 19 0
3 -8 0
3 -14 0
1 3 -18 0
-3 8 0
-3 14 0
1 -3 18 0
2 -7 0
2 -13 0
1 2 -17 0
-2 7 0
-2 13 0
1 -2 17 0
1 -6 0
1 -12 0
1 -21 0
-1 5 16 0
2 5 -17 0
-1 -5 -16 0
-1 2 -5 17 0
2 -5 20 0
2 4 -19 0
2 -4 19 0
2 3 -18 0
2 -3 18 0
2 -21 0
-2 5 17 0
3 5 -18 0
-1 -2 -5 -17 0
-1 -2 3 -5 18 0
3 -5 20 0
3 4 -19 0
3 -4 19 0
3 -21 0
-3 5 18 0
4 5 -19 0
-1 -2 -3 -5 -18 0
-1 -2 -3 4 -5 19 0
4 -5 20 0
4 -21 0
-4 5 19 0
5 -21 0
-1 -2 -3 -4 -5 -19 0
-1 -2 -3 -4 -5 21 0
-1 -2 -3 -4 -20 0
-1 6 0
-1 12 0
-11 0
